c description: Random 3-CNF over 15 variables and 45 clauses
c generator: CNFgen (0.9.0)
c copyright: (C) 2012-2020 Massimo Lauria <massimo.lauria@uniroma1.it>
c url: https://massimolauria.net/cnfgen
c
p cnf 15 45
-9 11 12 0
-1 9 15 0
5 -13 15 0
-1 5 -8 0
8 -13 -14 0
-6 8 11 0
-2 -4 -12 0
-4 -6 12 0
-6 -10 -15 0
-1 -3 4 0
2 -11 12 0
1 -2 -9 0
-1 3 11 0
-1 -13 15 0
-4 7 15 0
1 -4 13 0
1 13 -14 0
8 9 14 0
1 -10 13 0
2 5 9 0
-2 4 -11 0
-9 -12 -15 0
-4 12 15 0
-6 -8 -13 0
5 -10 -12 0
4 7 8 0
3 -10 13 0
3 -4 -11 0
5 -6 9 0
-5 6 13 0
-10 -13 -15 0
6 -8 12 0
6 -7 11 0
3 -7 8 0
2 -8 13 0
5 -14 -15 0
-3 -8 -15 0
3 -6 -7 0
3 5 -10 0
-4 14 -15 0
4 -8 -10 0
-8 -12 13 0
1 -2 7 0
1 -4 10 0
-1 7 -9 0